N = 5;
Capacity = 9;
Demand = [9, 1, 3, 3, 1];
Distance = [|
  0, 6, 52, 29, 38, 56
| 6, 0, 56, 31, 33, 51
| 52, 56, 0, 30, 75, 91
| 29, 31, 30, 0, 45, 61
| 38, 33, 75, 45, 0, 19
| 56, 51, 91, 61, 19, 0
|];
